(set-info :origin "driver benchmark extracted from Microsoft SDV")
(set-logic HORN)
(declare-fun Proc34 (Int Int Int Bool Int) Bool)
(declare-fun Proc20 (Int Int Int Bool Int Int) Bool)
(declare-fun Proc13 (Int Int Int Bool) Bool)
(declare-fun Proc24 (Int Int Int Bool Int Int Int Int Int Int) Bool)
(declare-fun Proc16 (Int Int Int Bool) Bool)
(declare-fun Proc14 (Int Int Int Bool) Bool)
(declare-fun Proc53 (Int Int Int Bool Int Bool Int Int Int) Bool)
(declare-fun Proc23 (Int Int Int Bool Int Int) Bool)
(declare-fun Proc40 (Int Int Int Bool Int) Bool)
(declare-fun Proc25 (Int Int Int Bool Int) Bool)
(declare-fun Proc22 (Int Int Int Bool Int Int Int Int Int Int) Bool)
(declare-fun Proc32 (Int Int Int Bool Int Int Int Bool Int) Bool)
(declare-fun Proc10 (Int Int Int Bool Int Int) Bool)
(declare-fun Proc37 (Int Int Int Bool Int) Bool)
(declare-fun Proc44 (Int Int Int Bool Int) Bool)
(declare-fun Proc51 (Int Int Int Bool Int Int Int Int Int Int) Bool)
(declare-fun Proc27 (Int Int Int Bool Int Int Int) Bool)
(declare-fun Proc50 (Int Int Int Bool Int) Bool)
(declare-fun Proc0 (Int Int Int Bool Int Int Int) Bool)
(declare-fun Proc42 (Int Int Int Bool Int) Bool)
(declare-fun Proc43 (Int Int Int Bool Int) Bool)
(declare-fun Proc2 (Int Int Int Bool Int Int) Bool)
(declare-fun Proc6 (Int Int Int Bool Int Int) Bool)
(declare-fun Proc46 (Int Int Int Bool Int Int) Bool)
(declare-fun Proc8 (Int Int Int Bool Int) Bool)
(declare-fun Proc33 (Int Int Int Bool Int) Bool)
(declare-fun Proc5 (Int Int Int Bool Int Int Int) Bool)
(declare-fun Proc48 (Int Int Int Bool) Bool)
(declare-fun Proc12 (Int Int Int Bool Int Int Int Int) Bool)
(declare-fun Proc47 (Int Int Int Bool Int) Bool)
(declare-fun Proc52 (Int Int Int Bool) Bool)
(declare-fun Proc29 (Int Int Int Bool Int Int Int Int) Bool)
(declare-fun Proc30 (Int Int Int Bool Int) Bool)
(declare-fun Proc45 (Int Int Int Bool Int) Bool)
(declare-fun Proc11 (Int Int Int Bool Int Int Int) Bool)
(declare-fun Proc39 (Int Int Int Bool Int) Bool)
(declare-fun Proc21 (Int Int Int Bool Int Int Int) Bool)
(declare-fun Proc41 (Int Int Int Bool Int) Bool)
(declare-fun Proc26 (Int Int Int Bool Int Int Int Int Int Int) Bool)
(declare-fun Proc3 (Int Int Int Bool Int) Bool)
(declare-fun Proc18 (Int Int Int Bool Int Int Int) Bool)
(declare-fun Proc36 (Int Int Int Bool Int) Bool)
(declare-fun Proc38 (Int Int Int Bool Int) Bool)
(declare-fun Proc49 (Int Int Int Bool Int Int) Bool)
(declare-fun Proc35 (Int Int Int Bool Int) Bool)
(declare-fun Proc28 (Int Int Int Bool Int Int Int Int) Bool)
(declare-fun Proc15 (Int Int Int Bool Int Int) Bool)
(declare-fun Proc9 (Int Int Int Bool Int Int Int Int Int Int) Bool)
(declare-fun Proc17 (Int Int Int Bool Int) Bool)
(declare-fun Proc19 (Int Int Int Bool Int Int Int) Bool)
(declare-fun Proc4
             (Int Int Int Bool Int Int Int Int Int Int Int Int Int Int Int Int)
             Bool)
(declare-fun Proc31 (Int Int Int Bool Int Int Int) Bool)
(declare-fun Proc1 (Int Int Int Bool Int Int Int Int Int) Bool)
(declare-fun Proc7 (Int Int Int Bool Int Int Int Int) Bool)
(assert (forall ((A Int) (B Int) (C Int) (D Int) (E Int) (F Int) (G Int) (H Bool))
  (let ((a!1 (and (or (not (= F 1)) (not (= E F)))
                  (or (not (= F 0)) (not (= E F))))))
  (let ((a!2 (and (or (= G 0) (not (= F 1)) (not (= E F)))
                  (or (not (= G 0)) a!1))))
    (=> (not (or (not H) a!2)) (Proc0 D C B H A G E))))))
(assert (forall ((A Int)
         (B Int)
         (C Int)
         (D Int)
         (E Int)
         (F Int)
         (G Int)
         (H Bool)
         (I Int)
         (J Int)
         (K Int)
         (L Int)
         (M Int))
  (let ((a!1 (or (not (and (= M L) (= K 0))) (not (and (= J K) (= I M)))))
        (a!2 (and (not (<= F (+ 1 G))) (not (<= F L)))))
  (let ((a!3 (or (not (= G L))
                 (not a!2)
                 (not (and (= M F) (= K G)))
                 (not (and (= J K) (= I M))))))
    (=> (not (or (not H) (and a!1 a!3))) (Proc1 L E D H C B A J I))))))
(assert (forall ((A Int)
         (B Int)
         (C Int)
         (D Int)
         (E Int)
         (F Int)
         (G Int)
         (H Bool)
         (I Int))
  (let ((a!1 (not (and (= E (- 1073741823)) (= G E)))))
  (let ((a!2 (and (or (= I 0) (not (= G 0)) (not (= F G)))
                  (or (not (= I 0)) a!1 (not (= F G))))))
    (=> (not (or (not H) a!2)) (Proc2 D C B H A F))))))
(assert (forall ((A Int) (B Int) (C Int) (D Int) (H Bool)) (=> H (Proc3 D C B H A))))
(assert (forall ((A Int)
         (B Int)
         (C Int)
         (D Int)
         (E Int)
         (F Int)
         (G Int)
         (H Bool)
         (I Int)
         (J Int)
         (K Int)
         (L Int)
         (M Int)
         (N Int)
         (O Int)
         (P Int)
         (Q Int)
         (R Int)
         (S Int))
  (let ((a!1 (not (and (= Q (- 1073741670)) (= S Q))))
        (a!2 (not (and (= P (- 1073741811)) (= S P)))))
  (let ((a!3 (and (or (not (= S 0)) (not (= R S)))
                  (or a!1 (not (= R S)))
                  (or a!2 (not (= R S))))))
    (=> (not (or (not H) a!3)) (Proc4 O N M H L K J I G F E D C B A R))))))
(assert (forall ((A Int) (B Int) (C Int) (D Int) (E Int) (F Int) (H Bool))
  (let ((a!1 (not (or (not H) (= F 0) (not (= E 259))))))
    (=> a!1 (Proc5 D C B H A F E)))))
(assert (forall ((A Int) (B Int) (C Int) (D Int) (E Int) (H Bool))
  (=> H (Proc6 E D C H B A))))
(assert (forall ((A Int)
         (B Int)
         (C Int)
         (D Int)
         (E Int)
         (F Int)
         (G Int)
         (H Bool)
         (I Int)
         (J Int))
  (let ((a!1 (and (not (<= G (+ 1 J))) (not (<= G I)))))
  (let ((a!2 (not (or (not H) (not (= J I)) (not a!1) (not (= F G))))))
    (=> a!2 (Proc7 I E D H C B A F))))))
(assert (forall ((A Int) (B Int) (C Int) (D Int) (H Bool)) (=> H (Proc8 D C B H A))))
(assert (forall ((A Int)
         (B Int)
         (C Int)
         (D Int)
         (E Int)
         (F Int)
         (G Int)
         (H Bool)
         (I Int)
         (J Int)
         (K Int)
         (L Int))
  (let ((a!1 (not (and (= L (- 1073741823)) (= K L)))))
  (let ((a!2 (and (or a!1 (not (= J K))) (or (not (= K 0)) (not (= J K))))))
    (=> (not (or (not H) a!2)) (Proc9 I G F H E D C B A J))))))
(assert (forall ((A Int)
         (B Int)
         (C Int)
         (D Int)
         (E Int)
         (F Int)
         (G Int)
         (H Bool)
         (I Int)
         (J Int))
  (let ((a!1 (and (not (<= G (+ 1 J))) (not (<= G I)))))
  (let ((a!2 (or (not H)
                 (not (= J I))
                 (not a!1)
                 (not (Proc10 G F E H J D))
                 (not (and (= C G) (= B D))))))
    (=> (not a!2) (Proc11 I F E H A C B))))))
(assert (forall ((A Int) (B Int) (C Int) (D Int) (E Int) (H Bool))
  (let ((a!1 (not (or (not H) (not (= E 1))))))
    (=> a!1 (Proc10 D C B H A E)))))
(assert (forall ((A Int)
         (B Int)
         (C Int)
         (D Int)
         (E Int)
         (F Int)
         (G Int)
         (H Bool)
         (I Int)
         (J Int)
         (K Int)
         (L Int)
         (M Int))
  (let ((a!1 (not (and (= C F) (= B D) (= A E))))
        (a!3 (not (and (not (= G 1)) (= F M) (= E G) (= D I)))))
  (let ((a!2 (or (not (and (= G 1) (= F M) (= E G) (= D I))) a!1))
        (a!4 (or (not (= M 0)) (not (= F 1)) (not (and (= E K) (= D L))) a!1)))
  (let ((a!5 (and (or (= M 0)
                      (not (Proc11 L M K H J I G))
                      (and a!2 (or a!3 a!1)))
                  a!4)))
    (=> (not (or (not H) a!5)) (Proc12 L M K H J C B A)))))))
(assert (forall ((A Int) (B Int) (C Int) (H Bool)) (=> H (Proc13 C B A H))))
(assert (forall ((A Int) (B Int) (C Int) (H Bool)) (=> H (Proc14 C B A H))))
(assert (forall ((A Int) (B Int) (C Int) (D Int) (E Int) (H Bool))
  (let ((a!1 (or (not H) (not (and (= E 0) (= D 0))))))
    (=> (not a!1) (Proc15 C B A H E D)))))
(assert (forall ((A Int)
         (B Int)
         (C Int)
         (D Int)
         (E Int)
         (F Int)
         (G Int)
         (H Bool)
         (I Int)
         (J Int))
  (let ((a!1 (not (and (not (= D 0)) (Proc18 I G F H C E B)))))
  (let ((a!2 (not (or (not H)
                      (= J 0)
                      (not (Proc16 I G F H))
                      (not (Proc17 I G F H E))
                      (= D 0)
                      a!1
                      (not (= A B))))))
    (=> a!2 (Proc19 I G F H J E A))))))
(assert (forall ((A Int)
         (B Int)
         (C Int)
         (D Int)
         (E Int)
         (F Int)
         (G Int)
         (H Bool)
         (I Int)
         (J Int)
         (K Int)
         (L Int)
         (M Int)
         (N Int)
         (O Int)
         (P Int))
  (let ((a!1 (not (and (= J (- 1073741822)) (= I J))))
        (a!2 (not (and (not (= F 0))
                       (= E (+ 28 F))
                       (Proc4 P O N H E 128 F 0 D 0 0 0 1 1 1 C))))
        (a!3 (not (and (not (= F 0)) (Proc18 P O N H B M A)))))
  (let ((a!4 (and (or a!1 (not (= G I)))
                  (or (= F 0)
                      a!2
                      (not (Proc17 P O N H M))
                      a!3
                      (not (= I A))
                      (not (= G I))))))
  (let ((a!5 (not (or (not H)
                      (not (Proc16 P O N H))
                      (not (Proc20 P O N H M L))
                      (= K 0)
                      (= L 0)
                      a!4))))
    (=> a!5 (Proc21 P O N H K M G)))))))
(assert (forall ((A Int)
         (B Int)
         (C Int)
         (D Int)
         (E Int)
         (F Int)
         (G Int)
         (H Bool)
         (I Int)
         (J Int)
         (K Int)
         (L Int)
         (M Int)
         (N Int)
         (O Int)
         (P Int)
         (Q Int)
         (R Int)
         (S Int)
         (T Int)
         (U Int)
         (V Int)
         (W Int)
         (X Int)
         (Y Int)
         (Z Int)
         (A1 Int)
         (B1 Int)
         (C1 Int)
         (D1 Int)
         (E1 Int)
         (F1 Int))
  (let ((a!1 (and (not (<= D1 (+ 112 F1))) (not (<= D1 E1))))
        (a!2 (not (and (not (= X 0)) (Proc18 Z B1 A1 H W Y V))))
        (a!3 (not (and (not (= V 259)) (= U V))))
        (a!4 (not (and (= Q T) (= P U) (= O S) (= N R))))
        (a!5 (not (and (= M P) (= L N) (= K O) (= J Q))))
        (a!7 (and (not (<= G (+ 1 I))) (not (<= G Z))))
        (a!9 (not (and (not (= D 1)) (= T D) (= S F) (= R E))))
        (a!12 (not (and (not (= Y 0)) (= U A)))))
  (let ((a!6 (or (not (= T A1))
                 (not (and (= S B1) (= R Z)))
                 (not (Proc23 R S T H Y 0))
                 a!4
                 a!5))
        (a!8 (or (not (= D 1)) (not (and (= Q D) (= P C) (= O F) (= N E))) a!5)))
  (let ((a!10 (and a!8 (or a!9 (not (Proc23 R S T H Y 0)) a!4 a!5))))
  (let ((a!11 (and a!6
                   (or (not (= I Z))
                       (not a!7)
                       (not (Proc12 G B1 A1 H I F E D))
                       a!10))))
  (let ((a!13 (and (or a!3 (= Y 0) a!11)
                   (or (not (= V 259))
                       (not (Proc9 Z B1 A1 H F1 0 0 0 0 B))
                       a!12
                       (= Y 0)
                       a!11))))
  (let ((a!14 (not (or (not H)
                       (not (= F1 E1))
                       (not a!1)
                       (= C1 0)
                       (not (Proc16 D1 B1 A1 H))
                       (not (Proc7 D1 B1 A1 H F1 0 0 Z))
                       (not (Proc17 Z B1 A1 H Y))
                       (not (Proc22 Z B1 A1 H Y 127 F1 1 1 1))
                       (= X 0)
                       a!2
                       a!13))))
    (=> a!14 (Proc24 E1 B1 A1 H C1 Y M L K J))))))))))
(assert (forall ((A Int)
         (B Int)
         (C Int)
         (D Int)
         (E Int)
         (F Int)
         (G Int)
         (H Bool)
         (I Int)
         (J Int)
         (K Int)
         (L Int)
         (M Int)
         (N Int)
         (O Int)
         (P Int)
         (Q Int)
         (R Int)
         (S Int)
         (T Int)
         (U Int)
         (V Int)
         (W Int)
         (X Int)
         (Y Int)
         (Z Int)
         (A1 Int)
         (B1 Int)
         (C1 Int)
         (D1 Int)
         (E1 Int)
         (F1 Int)
         (G1 Int)
         (H1 Int)
         (I1 Int)
         (J1 Int)
         (K1 Int)
         (L1 Int)
         (M1 Int)
         (N1 Int)
         (O1 Int)
         (P1 Int)
         (Q1 Int)
         (R1 Int)
         (S1 Int)
         (T1 Int)
         (U1 Int)
         (V1 Int)
         (W1 Int)
         (X1 Int))
  (let ((a!1 (and (= X1 W1) (not (<= V1 (+ 4 X1)))))
        (a!2 (and (not (<= V1 W1))
                  (= U1 V1)
                  (not (<= T1 (+ 4 U1)))
                  (not (<= T1 V1))
                  (= S1 T1)
                  (not (<= R1 (+ 8 S1)))
                  (not (<= R1 T1))
                  (= Q1 R1)
                  (not (<= P1 (+ 8 Q1)))
                  (not (<= P1 R1))
                  (= O1 P1)
                  (not (<= N1 (+ 12 O1)))
                  (not (<= N1 P1))
                  (= M1 N1)
                  (not (<= L1 (+ 4 M1)))
                  (not (<= L1 N1))))
        (a!3 (and (not (<= J1 (+ 1 K1))) (not (<= J1 L1))))
        (a!4 (and (not (<= H1 (+ 1 I1))) (not (<= H1 J1))))
        (a!5 (not (and (not (= B1 0)) (not (= C1 0)))))
        (a!6 (not (and (not (= B1 0)) (Proc18 Z G1 F1 H Y D1 X))))
        (a!7 (not (and (= S U) (= R W) (= Q V) (= P T))))
        (a!8 (not (and (= O Q) (= N P) (= M R) (= L S))))
        (a!10 (not (and (= W J) (= V K) (= U I) (= T G))))
        (a!12 (and (not (<= E (+ 1 F))) (not (<= E H1))))
        (a!14 (not (and (not (= B 1)) (= J D) (= I B) (= G C)))))
  (let ((a!9 (or (not (Proc25 H1 G1 F1 H M1))
                 (not (Proc6 H1 G1 F1 H M1 O1))
                 (not (<= 3 A1))
                 (not (Proc17 Z G1 F1 H D1))
                 (= B1 0)
                 a!6
                 (not (and (= W G1) (= V X) (= U F1) (= T Z)))
                 a!7
                 a!8))
        (a!11 (or (not (= J G1))
                  (not (and (= I F1) (= G H1)))
                  (not (Proc23 G J I H D1 0))
                  a!10
                  a!7
                  a!8))
        (a!13 (or (not (= B 1))
                  (not (and (= W D) (= V A) (= U B) (= T C)))
                  a!7
                  a!8)))
  (let ((a!15 (and a!13 (or a!14 (not (Proc23 G J I H D1 0)) a!10 a!7 a!8))))
  (let ((a!16 (and a!11
                   (or (not (= F H1))
                       (not a!12)
                       (not (Proc12 E G1 F1 H F D C B))
                       a!15))))
  (let ((a!17 (or (not (= K (- 1073741789))) (= D1 0) a!16)))
  (let ((a!18 (not (or (not H)
                       (not a!1)
                       (not a!2)
                       (not (= K1 L1))
                       (not a!3)
                       (not (= I1 J1))
                       (not a!4)
                       (not (Proc16 H1 G1 F1 H))
                       (= E1 0)
                       (not (Proc20 H1 G1 F1 H D1 C1))
                       a!5
                       (and a!9 a!17)))))
    (=> a!18 (Proc26 W1 G1 F1 H E1 D1 O N M L))))))))))
(assert (forall ((A Int)
         (B Int)
         (C Int)
         (D Int)
         (E Int)
         (F Int)
         (G Int)
         (H Bool)
         (I Int)
         (J Int))
  (let ((a!1 (not (and (not (= D 0)) (Proc18 I G F H C E B)))))
  (let ((a!2 (not (or (not H)
                      (= J 0)
                      (not (Proc16 I G F H))
                      (not (Proc17 I G F H E))
                      (= D 0)
                      a!1
                      (not (= A B))))))
    (=> a!2 (Proc27 I G F H J E A))))))
(assert (forall ((A Int)
         (B Int)
         (C Int)
         (D Int)
         (E Int)
         (F Int)
         (G Int)
         (H Bool)
         (I Int))
  (let ((a!1 (not (and (not (= G 0)) (not (= F 0))))))
  (let ((a!2 (not (or (not H) (= I 0) a!1 (not (Proc8 E D C H B)) (not (= A 0))))))
    (=> a!2 (Proc28 E D C H I F B A))))))
(assert (forall ((A Int)
         (B Int)
         (C Int)
         (D Int)
         (E Int)
         (F Int)
         (G Int)
         (H Bool)
         (I Int))
  (let ((a!1 (not (and (not (= G 0)) (not (= F 0))))))
  (let ((a!2 (not (or (not H) (= I 0) a!1 (not (= E 0))))))
    (=> a!2 (Proc29 D C B H I F A E))))))
(assert (forall ((A Int)
         (B Int)
         (C Int)
         (D Int)
         (E Int)
         (F Int)
         (G Int)
         (H Bool)
         (I Int)
         (J Int)
         (K Int)
         (L Int)
         (M Int)
         (N Int)
         (O Int)
         (P Int)
         (Q Int)
         (Y1 Bool)
         (Z1 Bool)
         (A2 Bool))
  (let ((a!1 (not (and (not (<= Q 0)) (Proc30 Q P O A2 N))))
        (a!2 (not (and (= E G) (= D J) (= C I) (= Y1 Z1) (= B K)))))
  (let ((a!3 (or (= I 0) (not (and (= G F) (not Z1))) a!2))
        (a!4 (or (not (and (= I 0) (= H A2))) (not (and (= G A) (= Z1 H))) a!2)))
  (let ((a!5 (and (or (= I 1) (and a!3 a!4)) (or (not (= I 1)) (and a!3 a!4)))))
  (let ((a!6 (not (or (not A2)
                      a!1
                      (not (Proc15 N P O A2 M L))
                      (not (Proc14 N M L A2))
                      (not (Proc13 N M L A2))
                      (not (Proc31 N M L A2 K J I))
                      a!5))))
    (=> a!6 (Proc32 Q P O A2 E D C Y1 B))))))))
(assert (forall ((A Int) (B Int) (C Int) (D Int) (H Bool))
  (let ((a!1 (not (or (not H) (not (= D 1))))))
    (=> a!1 (Proc33 C B A H D)))))
(assert (forall ((A Int) (B Int) (C Int) (D Int) (H Bool))
  (let ((a!1 (not (or (not H) (not (= D 0))))))
    (=> a!1 (Proc34 C B A H D)))))
(assert (forall ((A Int) (B Int) (C Int) (D Int) (H Bool))
  (let ((a!1 (not (or (not H) (not (= D 1))))))
    (=> a!1 (Proc35 C B A H D)))))
(assert (forall ((A Int) (B Int) (C Int) (D Int) (H Bool))
  (let ((a!1 (not (or (not H) (not (= D 0))))))
    (=> a!1 (Proc36 C B A H D)))))
(assert (forall ((A Int) (B Int) (C Int) (D Int) (H Bool))
  (let ((a!1 (not (or (not H) (not (= D 1))))))
    (=> a!1 (Proc37 C B A H D)))))
(assert (forall ((A Int) (B Int) (C Int) (D Int) (H Bool))
  (let ((a!1 (not (or (not H) (not (= D 1))))))
    (=> a!1 (Proc38 C B A H D)))))
(assert (forall ((A Int) (B Int) (C Int) (D Int) (H Bool))
  (let ((a!1 (not (or (not H) (not (= D 1))))))
    (=> a!1 (Proc39 C B A H D)))))
(assert (forall ((A Int) (B Int) (C Int) (D Int) (H Bool))
  (let ((a!1 (not (or (not H) (not (= D 1))))))
    (=> a!1 (Proc40 C B A H D)))))
(assert (forall ((A Int) (B Int) (C Int) (D Int) (H Bool))
  (let ((a!1 (not (or (not H) (not (= D 1))))))
    (=> a!1 (Proc41 C B A H D)))))
(assert (forall ((A Int) (B Int) (C Int) (D Int) (H Bool))
  (let ((a!1 (not (or (not H) (not (= D 0))))))
    (=> a!1 (Proc42 C B A H D)))))
(assert (forall ((A Int) (B Int) (C Int) (D Int) (H Bool))
  (let ((a!1 (not (or (not H) (not (= D 0))))))
    (=> a!1 (Proc43 C B A H D)))))
(assert (forall ((A Int) (B Int) (C Int) (D Int) (E Int) (H Bool))
  (let ((a!1 (or (not H) (not (= E (- 1073741823))) (not (= D E)))))
    (=> (not a!1) (Proc44 C B A H D)))))
(assert (forall ((A Int) (B Int) (C Int) (D Int) (E Int) (F Int) (G Int) (H Bool))
  (let ((a!1 (not (or (not H) (not (Proc5 G F E H D C B)) (not (= A B))))))
    (=> a!1 (Proc18 G F E H D C A)))))
(assert (forall ((A Int) (B Int) (C Int) (D Int) (E Int) (H Bool))
  (=> H (Proc23 E D C H B A))))
(assert (forall ((A Int) (B Int) (C Int) (D Int) (H Bool))
  (let ((a!1 (not (or (not H) (not (= D 1))))))
    (=> a!1 (Proc45 C B A H D)))))
(assert (forall ((A Int) (B Int) (C Int) (D Int) (H Bool)) (=> H (Proc17 D C B H A))))
(assert (forall ((A Int) (B Int) (C Int) (D Int) (E Int) (F Int) (H Bool))
  (let ((a!1 (not (or (not H) (= F 0) (not (= E D))))))
    (=> a!1 (Proc20 C B A H F E)))))
(assert (forall ((A Int)
         (B Int)
         (C Int)
         (D Int)
         (E Int)
         (F Int)
         (G Int)
         (H Bool)
         (I Int)
         (J Int))
  (let ((a!1 (and (or (not (= J I)) (not (= G J)))
                  (or (not (= J F)) (not (= G J)))
                  (or (not (= J E)) (not (= G J))))))
    (=> (not (or (not H) a!1)) (Proc46 D C B H A G)))))
(assert (forall ((A Int)
         (B Int)
         (C Int)
         (D Int)
         (E Int)
         (F Int)
         (G Int)
         (H Bool)
         (I Int)
         (J Int)
         (K Int))
  (let ((a!1 (not (or (not H) (not (Proc46 K J I H G F)) (= F 0)))))
    (=> a!1 (Proc22 K J I H G E D C B A)))))
(assert (forall ((A Int) (B Int) (C Int) (D Int) (H Bool))
  (=> (not (or (not H) (= D 0))) (Proc25 C B A H D))))
(assert (forall ((A Int)
         (B Int)
         (C Int)
         (D Int)
         (E Int)
         (F Int)
         (G Int)
         (H Bool)
         (I Int)
         (J Int)
         (K Int)
         (L Int)
         (M Int)
         (N Int)
         (O Int)
         (P Int)
         (Q Int)
         (R Int)
         (S Int)
         (T Int)
         (U Int)
         (V Int)
         (W Int)
         (X Int)
         (Y Int)
         (Z Int)
         (A1 Int)
         (B1 Int)
         (C1 Int)
         (D1 Int)
         (E1 Int)
         (F1 Int)
         (G1 Int)
         (H1 Int)
         (I1 Int)
         (J1 Int)
         (K1 Int)
         (L1 Int)
         (M1 Int)
         (N1 Int)
         (O1 Int)
         (P1 Int)
         (Q1 Int)
         (R1 Int)
         (S1 Int))
  (let ((a!1 (not (and (= H1 L1) (= G1 K1) (= F1 J1) (= E1 I1))))
        (a!2 (not (and (= D1 H1) (= C1 G1) (= B1 E1) (= A1 F1))))
        (a!21 (not (and (= L1 C) (= K1 R1) (= J1 P1) (= I1 Q1)))))
  (let ((a!3 (or (= O1 0)
                 (not (Proc19 R1 Q1 P1 H N1 S1 M1))
                 (not (and (= L1 M1) (= K1 R1) (= J1 P1) (= I1 Q1)))
                 (not (Proc49 K1 I1 J1 H L1 S1))
                 (= S1 0)
                 a!1
                 a!2))
        (a!4 (or (= O1 0)
                 (not (Proc44 R1 Q1 P1 H Z))
                 (not (and (= L1 Z) (= K1 R1) (= J1 P1) (= I1 Q1)))
                 (not (Proc49 K1 I1 J1 H L1 S1))
                 (= S1 0)
                 a!1
                 a!2))
        (a!5 (or (not (= V 1))
                 (not (and (= H1 U) (= G1 X) (= F1 V) (= E1 W)))
                 a!2))
        (a!6 (or (= V 1)
                 (not (and (= L1 Y) (= K1 X) (= J1 V) (= I1 W)))
                 (not (Proc49 K1 I1 J1 H L1 S1))
                 (= S1 0)
                 a!1
                 a!2))
        (a!7 (or (= O1 0)
                 (not (Proc44 R1 Q1 P1 H T))
                 (not (and (= L1 T) (= K1 R1) (= J1 P1) (= I1 Q1)))
                 (not (Proc49 K1 I1 J1 H L1 S1))
                 (= S1 0)
                 a!1
                 a!2))
        (a!8 (or (= O1 0)
                 (not (Proc44 R1 Q1 P1 H S))
                 (not (and (= L1 S) (= K1 R1) (= J1 P1) (= I1 Q1)))
                 (not (Proc49 K1 I1 J1 H L1 S1))
                 (= S1 0)
                 a!1
                 a!2))
        (a!9 (or (= O1 0)
                 (not (Proc44 R1 Q1 P1 H R))
                 (not (and (= L1 R) (= K1 R1) (= J1 P1) (= I1 Q1)))
                 (not (Proc49 K1 I1 J1 H L1 S1))
                 (= S1 0)
                 a!1
                 a!2))
        (a!10 (or (= O1 0)
                  (not (Proc44 R1 Q1 P1 H Q))
                  (not (and (= L1 Q) (= K1 R1) (= J1 P1) (= I1 Q1)))
                  (not (Proc49 K1 I1 J1 H L1 S1))
                  (= S1 0)
                  a!1
                  a!2))
        (a!11 (or (not (Proc44 R1 Q1 P1 H P))
                  (not (and (= L1 P) (= K1 R1) (= J1 P1) (= I1 Q1)))
                  (not (Proc49 K1 I1 J1 H L1 S1))
                  (= S1 0)
                  a!1
                  a!2))
        (a!12 (or (= O1 0)
                  (not (Proc44 R1 Q1 P1 H O))
                  (not (and (= L1 O) (= K1 R1) (= J1 P1) (= I1 Q1)))
                  (not (Proc49 K1 I1 J1 H L1 S1))
                  (= S1 0)
                  a!1
                  a!2))
        (a!13 (or (= O1 0)
                  (not (Proc44 R1 Q1 P1 H N))
                  (not (and (= L1 N) (= K1 R1) (= J1 P1) (= I1 Q1)))
                  (not (Proc49 K1 I1 J1 H L1 S1))
                  (= S1 0)
                  a!1
                  a!2))
        (a!14 (or (= O1 0)
                  (not (Proc44 R1 Q1 P1 H M))
                  (not (and (= L1 M) (= K1 R1) (= J1 P1) (= I1 Q1)))
                  (not (Proc49 K1 I1 J1 H L1 S1))
                  (= S1 0)
                  a!1
                  a!2))
        (a!15 (or (not (Proc44 R1 Q1 P1 H L))
                  (not (and (= L1 L) (= K1 R1) (= J1 P1) (= I1 Q1)))
                  (not (Proc49 K1 I1 J1 H L1 S1))
                  (= S1 0)
                  a!1
                  a!2))
        (a!16 (or (= O1 0)
                  (not (Proc44 R1 Q1 P1 H K))
                  (not (and (= L1 K) (= K1 R1) (= J1 P1) (= I1 Q1)))
                  (not (Proc49 K1 I1 J1 H L1 S1))
                  (= S1 0)
                  a!1
                  a!2))
        (a!17 (or (not (= F 1))
                  (not (and (= H1 U) (= G1 I) (= F1 F) (= E1 G)))
                  a!2))
        (a!18 (or (= F 1)
                  (not (and (= L1 J) (= K1 I) (= J1 F) (= I1 G)))
                  (not (Proc49 K1 I1 J1 H L1 S1))
                  (= S1 0)
                  a!1
                  a!2))
        (a!19 (or (= O1 0)
                  (not (Proc27 R1 Q1 P1 H N1 S1 E))
                  (not (and (= L1 E) (= K1 R1) (= J1 P1) (= I1 Q1)))
                  (not (Proc49 K1 I1 J1 H L1 S1))
                  (= S1 0)
                  a!1
                  a!2))
        (a!20 (or (not (Proc44 R1 Q1 P1 H D))
                  (not (and (= L1 D) (= K1 R1) (= J1 P1) (= I1 Q1)))
                  (not (Proc49 K1 I1 J1 H L1 S1))
                  (= S1 0)
                  a!1
                  a!2))
        (a!22 (and (or (= O1 0)
                       (not (Proc21 R1 Q1 P1 H N1 S1 C))
                       a!21
                       (not (Proc49 K1 I1 J1 H L1 S1))
                       (= S1 0)
                       a!1
                       a!2)
                   (or (not (= B 1))
                       (= B 0)
                       (= O1 0)
                       (not (Proc21 R1 Q1 P1 H N1 S1 C))
                       a!21
                       (not (Proc49 K1 I1 J1 H L1 S1))
                       (= S1 0)
                       a!1
                       a!2))))
  (let ((a!23 (and (or (= O1 0) a!22) (or (not (= A 1)) (= A 0) (= O1 0) a!22))))
  (let ((a!24 (and a!3
                   a!4
                   (or (= O1 0)
                       (not (Proc26 R1 Q1 P1 H N1 S1 Y X W V))
                       (and a!5 a!6))
                   a!7
                   a!8
                   a!9
                   a!10
                   a!11
                   a!12
                   a!13
                   a!14
                   a!15
                   a!16
                   (or (= O1 0)
                       (not (Proc50 R1 Q1 P1 H S1))
                       (not (Proc24 R1 Q1 P1 H N1 S1 J I G F))
                       (and a!17 a!18))
                   a!19
                   a!20
                   (or (= O1 0) a!23))))
  (let ((a!25 (not (or (not H)
                       (= S1 0)
                       (not (Proc47 R1 Q1 P1 H S1))
                       (= O1 0)
                       (not (Proc48 R1 Q1 P1 H))
                       a!24))))
    (=> a!25 (Proc51 R1 Q1 P1 H N1 S1 D1 C1 B1 A1)))))))))
(assert (forall ((A Int) (B Int) (C Int) (D Int) (E Int) (H Bool))
  (=> (not (or (not H) (= E 0) (= D 0))) (Proc50 C B A H E))))
(assert (forall ((A Int) (B Int) (C Int) (D Int) (H Bool))
  (=> (not (or (not H) (= D 0))) (Proc47 C B A H D))))
(assert (forall ((A Int) (B Int) (C Int) (H Bool)) (=> H (Proc16 C B A H))))
(assert (forall ((A Int)
         (B Int)
         (C Int)
         (D Int)
         (E Int)
         (F Int)
         (G Int)
         (H Bool)
         (I Int)
         (J Int)
         (K Int)
         (L Int)
         (M Int)
         (N Int)
         (O Int)
         (P Int)
         (Q Int)
         (R Int)
         (S Int)
         (T Int)
         (U Int)
         (V Int)
         (W Int)
         (X Int)
         (Y Int)
         (Z Int)
         (A1 Int)
         (B1 Int))
  (let ((a!1 (not (and (= J L) (= I M) (= G K))))
        (a!4 (not (and (not (= A 1)) (= M B) (= L C) (= K A)))))
  (let ((a!2 (or (not (= M A1)) (not (and (= L B1) (= K Z))) a!1))
        (a!3 (or (not (and (= A 1) (= M B) (= L C) (= K A))) a!1))
        (a!5 (or (not (and (= Y 0) (= M A1) (= L B1) (= K Z))) a!1)))
  (let ((a!6 (and a!2
                  (or (= Y 0)
                      (not (Proc52 B1 A1 Z H))
                      (not (Proc51 B1 A1 Z H F E D C B A))
                      (and a!3 (or a!4 a!1)))
                  a!5)))
  (let ((a!7 (not (or (not H)
                      (not (Proc35 B1 A1 Z H Y))
                      (not (Proc42 B1 A1 Z H X))
                      (not (Proc36 B1 A1 Z H W))
                      (not (Proc41 B1 A1 Z H V))
                      (not (Proc34 B1 A1 Z H U))
                      (not (Proc38 B1 A1 Z H T))
                      (not (Proc45 B1 A1 Z H S))
                      (not (Proc43 B1 A1 Z H R))
                      (not (Proc33 B1 A1 Z H Q))
                      (not (Proc39 B1 A1 Z H P))
                      (not (Proc40 B1 A1 Z H O))
                      (not (Proc37 B1 A1 Z H N))
                      a!6))))
    (=> a!7 (Proc31 B1 A1 Z H J I G))))))))
(assert (forall ((A Int) (B Int) (C Int) (H Bool)) (=> H (Proc48 C B A H))))
(assert (forall ((A Int) (B Int) (C Int) (D Int) (E Int) (H Bool))
  (=> H (Proc49 E D C H B A))))
(assert (forall ((A Int) (B Int) (C Int) (H Bool)) (=> H (Proc52 C B A H))))
(assert (forall ((A Int)
         (B Int)
         (C Int)
         (D Int)
         (E Int)
         (F Int)
         (G Int)
         (H Bool)
         (I Int)
         (J Int)
         (K Int)
         (L Int)
         (M Int)
         (N Int)
         (O Int)
         (P Int)
         (Q Int)
         (R Int)
         (S Int)
         (T Int)
         (U Int)
         (V Int)
         (W Int)
         (X Int)
         (Y Int)
         (Z Int)
         (A1 Int)
         (B1 Int)
         (C1 Int)
         (D1 Int)
         (E1 Int)
         (F1 Int)
         (G1 Int)
         (H1 Int)
         (I1 Int)
         (J1 Int)
         (K1 Int)
         (L1 Int)
         (M1 Int)
         (N1 Int)
         (O1 Int)
         (P1 Int)
         (Q1 Int)
         (R1 Int)
         (S1 Int)
         (T1 Int)
         (U1 Int)
         (V1 Int)
         (W1 Int)
         (X1 Int)
         (B2 Int)
         (C2 Int)
         (D2 Int)
         (E2 Int)
         (F2 Int)
         (G2 Int)
         (H2 Int))
  (let ((a!1 (and (= H2 G2) (not (<= F2 (+ 240 H2)))))
        (a!2 (and (not (<= F2 G2))
                  (= E2 F2)
                  (not (<= D2 (+ 4 E2)))
                  (not (<= D2 F2))))
        (a!3 (and (= C2 D2)
                  (not (<= B2 (+ 332 C2)))
                  (not (<= B2 D2))
                  (= X1 B2)
                  (not (<= W1 (+ 4 X1)))
                  (not (<= W1 B2))
                  (= V1 W1)
                  (not (<= U1 (+ 536 V1)))))
        (a!4 (and (not (<= U1 W1))
                  (= T1 U1)
                  (not (<= S1 (+ 240 T1)))
                  (not (<= S1 U1))
                  (= R1 S1)
                  (not (<= Q1 (+ 240 R1)))
                  (not (<= Q1 S1))
                  (= P1 Q1)
                  (not (<= O1 (+ 536 P1)))
                  (not (<= O1 Q1))
                  (= N1 O1)
                  (not (<= M1 (+ 240 N1)))
                  (not (<= M1 O1))
                  (= L1 M1)
                  (not (<= K1 (+ 4 L1)))
                  (not (<= K1 M1))
                  (= J1 K1)
                  (not (<= I1 (+ 536 J1)))
                  (not (<= I1 K1))
                  (= H1 I1)
                  (not (<= G1 (+ 332 H1)))
                  (not (<= G1 I1))
                  (= F1 G1)
                  (not (<= E1 (+ 240 F1)))
                  (not (<= E1 G1))
                  (= D1 E1)
                  (not (<= C1 (+ 240 D1)))
                  (not (<= C1 E1))
                  (= B1 C1)
                  (not (<= A1 (+ 332 B1)))
                  (not (<= A1 C1))
                  (= Z A1)
                  (not (<= Y (+ 4 Z)))
                  (not (<= Y A1))
                  (= X Y)
                  (not (<= W (+ 536 X)))
                  (not (<= W Y))
                  (= V W)
                  (not (<= U (+ 240 V)))
                  (not (<= U W))
                  (= T U)
                  (not (<= S (+ 240 T)))
                  (not (<= S U))
                  (= R S)
                  (not (<= Q (+ 240 R)))
                  (not (<= Q S))
                  (= P Q)
                  (not (<= O (+ 240 P)))
                  (not (<= O Q))
                  (= N O)
                  (not (<= M (+ 240 N)))
                  (not (<= M O))
                  (= L M)
                  (not (<= K (+ 40 L)))
                  (not (<= K M))
                  (= J K)
                  (not (<= I (+ 332 J)))
                  (not (<= I K))
                  (= G I)
                  (not (<= F (+ 4 G)))
                  (not (<= F I))
                  (= E F)
                  (not (<= D (+ 40 E)))
                  (not (<= D F)))))
  (let ((a!5 (not (or (not H)
                      (not a!1)
                      (not a!2)
                      (not a!3)
                      (not a!4)
                      (not (= C D))))))
    (=> a!5 (Proc30 G2 B A H C))))))
(assert (forall ((A Int)
         (B Int)
         (C Int)
         (D Int)
         (E Int)
         (F Int)
         (G Int)
         (H Bool)
         (I Int)
         (J Int)
         (K Int)
         (L Int)
         (Y1 Bool)
         (Z1 Bool))
  (let ((a!1 (or (not Z1) (not (and (Proc32 L K J true I G F Y1 E) (not Y1))))))
    (=> (not a!1) (Proc53 L K J Z1 D H C B A)))))
(assert (let ((a!1 (exists ((V0 Int)
                    (V1 Int)
                    (V2 Int)
                    (V3 Bool)
                    (V4 Int)
                    (V5 Bool)
                    (V6 Int)
                    (V7 Int)
                    (V8 Int))
             (not (=> (and (Proc53 V0 V1 V2 V3 V4 V5 V6 V7 V8) (not false))
                      false)))))
  (not a!1)))

(check-sat)
